59 63 64
9 56 55
29 2 36 42 33 0
70 22 31 27 8 43
61 66 32 26
49 67
20 21 51
44 4 62 68
54 7 45
6 37 60
41 1 73
11 16 30
18 38 71 46 3
12 14 19 52
74 24
53 13 28 57
35 5 23 34
72 39 50
58 15 25
48 40 47 69
10 17 65
